25
0 1 0 0 0 0 0 0 0 0 0 0 2 0 0 0 1 0 0 4 0 1 1 0 0 
-10 0 0 1 0 -10 0 0 0 0 0 0 0 0 0 0 0 0 0 -10 0 0 0 0 0 
0 0 0 0 -10 -10 0 0 -10 0 0 0 0 0 0 0 0 0 0 0 0 0 0 0 0 
-10 0 0 0 0 -10 0 0 0 0 0 0 0 0 0 0 0 0 0 -10 0 0 0 0 0 
0 0 -10 0 0 0 0 0 1 0 2 0 4 2 5 3 0 0 0 0 1 3 0 1 7 
0 -10 -10 -10 -10 0 -10 -10 -2 -10 3 0 3 2 2 4 1 3 0 -8 1 1 0 0 0 
-10 0 0 1 0 -10 0 1 0 1 0 0 0 0 0 0 0 0 0 -10 0 0 0 0 0 
-10 0 0 2 0 -10 1 0 0 1 0 0 0 0 0 0 0 0 0 -10 0 0 0 0 0 
0 0 -10 0 -1 -2 0 0 0 0 1 0 -1 0 1 0 0 0 0 1 1 1 0 1 0 
-10 0 0 1 0 -10 1 1 0 0 0 0 0 0 0 0 0 0 0 -10 0 0 0 0 0 
0 0 0 0 -10 10 0 0 3 0 0 0 0 0 2 0 0 4 0 -10 1 0 0 0 1 
0 0 0 0 0 0 0 0 0 0 0 0 0 0 0 0 0 0 0 0 0 0 0 0 0 
2 0 0 0 8 3 0 0 0 0 0 0 0 1 8 0 0 4 0 2 0 0 0 2 1 
0 0 -10 0 1 3 0 0 0 0 0 0 1 0 0 0 0 1 0 3 0 0 0 2 1 
0 0 -10 0 0 2 0 0 1 0 2 0 6 0 0 4 3 8 0 1 3 6 3 0 1 
0 0 0 0 3 5 0 0 0 0 0 0 0 0 5 0 0 0 0 0 0 0 0 0 1 
1 0 0 0 0 1 0 0 0 0 0 0 0 0 3 0 0 6 0 1 0 0 0 0 1 
0 0 0 0 0 0 0 0 0 0 5 0 2 1 8 0 3 0 0 -10 5 0 -1 0 0 
0 0 0 0 0 0 0 0 0 0 0 0 0 0 0 0 0 0 0 0 0 0 0 0 0 
2 -10 0 0 -10 5 0 0 1 0 1 0 2 2 1 0 1 10 0 0 2 1 1 0 5 
0 0 0 0 1 1 0 0 0 0 1 0 0 0 4 0 0 9 0 2 0 0 0 0 6 
1 0 0 0 2 2 0 0 1 0 0 0 0 0 4 0 0 0 0 2 0 0 0 1 0 
3 0 0 0 0 0 0 0 0 0 0 0 0 0 3 0 0 0 0 3 0 0 0 0 0 
0 0 -10 0 -10 0 0 0 2 0 0 0 2 1 0 0 0 0 0 0 0 1 0 0 3 
0 0 0 0 -3 0 0 0 0 0 1 0 1 1 1 1 1 0 0 3 6 0 0 1 0 

BitCoin Vertices:
4635, 4654, 3744, 4683, 2028, 1810, 4681, 4678, 2388, 4679, 3465, 4679, 2063, 1629, 2642, 3185, 2552, 4172, 2642, 905, 353, 2110, 3611, 2835, 13
NUM EDGES NEG = 43
NUM EDGES POS = 135